c FILE /home/rafael/Documents/HappySet/MIHS/inputs/happygen/output/graph_scale_free_k4_p0.2_v50_20241127_082426.txt
c SOURCE This is a scale-free graph formed for the happy graph colouring problem.
c DESCRIPTION It was generated using the problem generator of Rhyd Lewis
c
c GRAPH STATS
c Seed                             = 2132153166
c Number of Nodes                  = 50
c Number of colours k              = 4
c Number of pre-assignments        = 10
c Number of links per new node     = 5
c Density                          = 0.191837
c 
c The degrees of nodes 1 to 50, respectively, are as follows 
c [23, 23, 22, 21, 19, 15, 14, 14, 14, 13, 13, 12, 12, 12, 11, 11, 10, 10, 9, 9, 9, 9, 8, 7, 7, 7, 
c  7, 7, 7, 7, 6, 6, 6, 6, 6, 6, 6, 6, 5, 5, 5, 5, 5, 5, 5, 5, 5, 5, 5, 5] 
c  
p edge 50 235 4
e 1 2
e 1 3
e 1 4
e 1 5
e 1 7
e 1 8
e 1 9
e 1 10
e 1 11
e 1 12
e 1 13
e 1 14
e 1 15
e 1 18
e 1 21
e 1 23
e 1 25
e 1 27
e 1 30
e 1 35
e 1 37
e 1 41
e 1 48
e 2 3
e 2 4
e 2 5
e 2 6
e 2 7
e 2 8
e 2 10
e 2 12
e 2 15
e 2 16
e 2 17
e 2 18
e 2 19
e 2 20
e 2 23
e 2 24
e 2 26
e 2 32
e 2 35
e 2 36
e 2 41
e 2 45
e 3 4
e 3 5
e 3 7
e 3 8
e 3 10
e 3 11
e 3 12
e 3 19
e 3 22
e 3 24
e 3 28
e 3 33
e 3 34
e 3 35
e 3 36
e 3 37
e 3 39
e 3 41
e 3 42
e 3 46
e 4 5
e 4 6
e 4 12
e 4 13
e 4 14
e 4 15
e 4 18
e 4 20
e 4 24
e 4 26
e 4 27
e 4 29
e 4 33
e 4 39
e 4 40
e 4 41
e 4 47
e 4 49
e 5 7
e 5 8
e 5 11
e 5 12
e 5 13
e 5 15
e 5 16
e 5 17
e 5 20
e 5 21
e 5 26
e 5 31
e 5 42
e 5 44
e 5 45
e 6 8
e 6 11
e 6 13
e 6 15
e 6 21
e 6 23
e 6 26
e 6 27
e 6 28
e 6 30
e 6 43
e 6 44
e 6 46
e 7 8
e 7 9
e 7 10
e 7 12
e 7 15
e 7 16
e 7 30
e 7 43
e 7 45
e 7 49
e 8 18
e 8 19
e 8 25
e 8 38
e 8 41
e 8 43
e 8 44
e 8 47
e 9 10
e 9 12
e 9 13
e 9 19
e 9 23
e 9 28
e 9 29
e 9 31
e 9 33
e 9 34
e 9 37
e 9 38
e 10 12
e 10 13
e 10 14
e 10 16
e 10 17
e 10 19
e 10 20
e 10 42
e 11 17
e 11 21
e 11 22
e 11 27
e 11 31
e 11 32
e 11 33
e 11 34
e 11 48
e 12 16
e 12 24
e 12 25
e 12 36
e 13 15
e 13 17
e 13 22
e 13 39
e 13 47
e 13 49
e 14 15
e 14 19
e 14 32
e 14 33
e 14 35
e 14 37
e 14 40
e 14 44
e 14 46
e 15 17
e 15 30
e 15 38
e 16 25
e 16 27
e 16 31
e 16 32
e 16 38
e 16 45
e 17 23
e 17 29
e 17 37
e 17 46
e 18 27
e 18 29
e 18 34
e 18 35
e 18 36
e 18 47
e 19 20
e 19 25
e 19 29
e 20 21
e 20 42
e 20 48
e 20 50
e 21 31
e 21 40
e 21 42
e 21 50
e 22 26
e 22 28
e 22 39
e 22 43
e 22 44
e 22 49
e 23 24
e 23 28
e 23 40
e 24 26
e 24 39
e 25 36
e 25 49
e 26 32
e 27 40
e 28 32
e 28 34
e 29 30
e 29 43
e 30 47
e 30 50
e 31 45
e 33 38
e 34 48
e 35 46
e 36 50
e 37 50
e 38 48
n 8 1
n 10 1
n 12 1
n 13 1
n 21 4
n 27 3
n 30 4
n 32 2
n 37 1
n 48 2
